&CONTROL
    calculation   = "vc-relax"
    forc_conv_thr =  1.00000e-03
    max_seconds   =  1.72800e+05
    nstep         = 100
    pseudo_dir    = "C:\Users\Dimas\.burai\.pseudopot"
/

&SYSTEM
    a            =  1.61524e+01
    c            =  1.03922e+01
    degauss      =  1.00000e-02
    ecutrho      =  2.25000e+02
    ecutwfc      =  2.50000e+01
    hubbard_u(1) =  1.05000e+01
    hubbard_u(2) =  7.00000e+00
    ibrav        = 4
    lda_plus_u   = .TRUE.
    nat          = 200
    nbnd         = 1320
    ntyp         = 3
    occupations  = "fixed"
    smearing     = "gaussian"
    tot_charge   =  1.00000e+00
/

&ELECTRONS
    conv_thr         =  1.00000e-06
    electron_maxstep = 200
    mixing_beta      =  7.00000e-01
    startingpot      = "atomic"
    startingwfc      = "atomic+random"
/

&IONS
    ion_dynamics = "bfgs"
/

&CELL
    cell_dofree    = "all"
    cell_dynamics  = "bfgs"
    press          =  0.00000e+00
    press_conv_thr =  5.00000e-01
/

K_POINTS {gamma}

ATOMIC_SPECIES
Zn     65.39000  Zn.pbe-van.UPF
O      15.99940  O.pbe-rrkjus.UPF
Al     26.98154  Al.pbe-rrkj.UPF

ATOMIC_POSITIONS {crystal}
Zn      0.133211   0.066393   0.249937
Zn      0.066534   0.133205   0.999884
O       0.133456   0.067061   0.440066
O       0.066786   0.133360   0.190149
Zn      0.133236   0.066482   0.750003
Zn      0.066772   0.133704   0.499768
O       0.133371   0.066795   0.940068
O       0.066921   0.133616   0.689840
Zn      0.132677   0.266234   0.249558
Zn      0.066366   0.333184   0.999934
O       0.135053   0.268396   0.440139
O       0.066694   0.333348   0.190123
Zn      0.133232   0.266530   0.750267
Zn      0.066013   0.333007   0.500437
O       0.133767   0.266989   0.940375
O       0.067007   0.333504   0.690299
Zn      0.132676   0.466444   0.249557
Zn      0.066534   0.533330   0.999884
O       0.135053   0.466658   0.440138
O       0.066786   0.533427   0.190147
Zn      0.133232   0.466704   0.750267
Zn      0.066771   0.533068   0.499767
O       0.133766   0.466779   0.940374
O       0.066921   0.533305   0.689839
Zn      0.133211   0.666819   0.249937
Zn      0.066689   0.733376   0.999871
O       0.133456   0.666395   0.440064
O       0.066683   0.733365   0.189996
Zn      0.133235   0.666753   0.750002
Zn      0.066635   0.733270   0.499844
O       0.133370   0.666576   0.940067
O       0.066655   0.733310   0.689906
Zn      0.133334   0.866667   0.249957
Zn      0.066689   0.933312   0.999871
O       0.133334   0.866667   0.440073
O       0.066683   0.933318   0.189997
Zn      0.133334   0.866667   0.749987
Zn      0.066636   0.933365   0.499844
O       0.133334   0.866667   0.940059
O       0.066655   0.933346   0.689907
Zn      0.333183   0.066393   0.249937
Zn      0.266513   0.133024   0.999854
O       0.333606   0.067062   0.440065
O       0.266703   0.133404   0.190047
Zn      0.333248   0.066482   0.750002
Zn      0.266617   0.133233   0.499836
O       0.333425   0.066795   0.940067
O       0.266800   0.133600   0.689882
Zn      0.332986   0.265971   0.249448
Zn      0.266537   0.333307   0.000558
O       0.333904   0.267808   0.439858
O       0.267150   0.334261   0.191600
Zn      0.333035   0.266069   0.750733
Zn      0.266690   0.332959   0.500421
O       0.333555   0.267108   0.940765
O       0.267582   0.334262   0.689688
Zn      0.333065   0.466533   0.249645
Zn      0.266536   0.533230   0.000558
O       0.344154   0.472078   0.444751
O       0.267149   0.532890   0.191599
Zn      0.332976   0.466488   0.750581
Zn      0.266689   0.533731   0.500420
O       0.334350   0.467176   0.938966
O       0.267582   0.533320   0.689687
Zn      0.332985   0.667016   0.249448
Zn      0.266512   0.733489   0.999853
O       0.333904   0.666097   0.439857
O       0.266702   0.733299   0.190045
Zn      0.333035   0.666966   0.750732
Zn      0.266616   0.733385   0.499836
O       0.333554   0.666447   0.940765
O       0.266800   0.733201   0.689882
Zn      0.333182   0.866790   0.249937
Zn      0.266625   0.933312   0.999871
O       0.333606   0.866545   0.440064
O       0.266635   0.933318   0.189996
Zn      0.333248   0.866766   0.750002
Zn      0.266731   0.933366   0.499844
O       0.333425   0.866631   0.940067
O       0.266691   0.933346   0.689906
Zn      0.533370   0.066685   0.249796
Zn      0.466671   0.133204   0.999884
O       0.533358   0.066679   0.440050
O       0.466574   0.133360   0.190147
Zn      0.533267   0.066634   0.749914
Zn      0.466933   0.133704   0.499767
O       0.533360   0.066680   0.940020
O       0.466696   0.133616   0.689838
Zn      0.533558   0.266233   0.249558
Zn      0.466772   0.333307   0.000558
O       0.533343   0.268395   0.440138
O       0.467112   0.334260   0.191599
Zn      0.533298   0.266529   0.750266
Zn      0.466270   0.332958   0.500420
O       0.533223   0.266988   0.940374
O       0.466681   0.334262   0.689687
Zn      0.533469   0.466532   0.249645
Zn      0.466667   0.533334   0.001947
O       0.527924   0.472077   0.444751
O       0.466667   0.533334   0.192189
Zn      0.533513   0.466488   0.750581
Al      0.466667   0.533334   0.500111
O       0.532826   0.467175   0.938966
O       0.466667   0.533334   0.674520
Zn      0.533468   0.666936   0.249645
Zn      0.466771   0.733465   0.000558
O       0.527923   0.655847   0.444751
O       0.467111   0.732851   0.191599
Zn      0.533513   0.667025   0.750581
Zn      0.466269   0.733312   0.500420
O       0.532825   0.665650   0.938966
O       0.466681   0.732419   0.689687
Zn      0.533557   0.867325   0.249557
Zn      0.466671   0.933467   0.999884
O       0.533343   0.864948   0.440138
O       0.466574   0.933215   0.190147
Zn      0.533297   0.866769   0.750267
Zn      0.466933   0.933230   0.499767
O       0.533222   0.866235   0.940374
O       0.466696   0.933080   0.689839
Zn      0.733447   0.066895   0.249704
Zn      0.666725   0.133363   0.999943
O       0.733303   0.066606   0.439872
O       0.666591   0.133296   0.190059
Zn      0.733378   0.066756   0.750029
Zn      0.666766   0.133384   0.500120
O       0.733317   0.066633   0.940049
O       0.666605   0.133303   0.690066
Zn      0.733448   0.266553   0.249703
Zn      0.666818   0.333183   0.999934
O       0.733303   0.266697   0.439871
O       0.666654   0.333347   0.190121
Zn      0.733378   0.266623   0.750029
Zn      0.666994   0.333007   0.500437
O       0.733317   0.266684   0.940048
O       0.666498   0.333503   0.690298
Zn      0.733768   0.466443   0.249558
Zn      0.666694   0.533229   0.000558
O       0.731606   0.466658   0.440138
O       0.665740   0.532889   0.191599
Zn      0.733472   0.466703   0.750266
Zn      0.667042   0.533730   0.500420
O       0.733013   0.466778   0.940374
O       0.665739   0.533320   0.689687
Zn      0.734030   0.667015   0.249448
Zn      0.666694   0.733464   0.000558
O       0.732193   0.666097   0.439858
O       0.665740   0.732851   0.191600
Zn      0.733932   0.666966   0.750733
Zn      0.667042   0.733311   0.500421
O       0.732893   0.666446   0.940765
O       0.665739   0.732419   0.689688
Zn      0.733767   0.867324   0.249558
Zn      0.666817   0.933635   0.999934
O       0.731605   0.864948   0.440139
O       0.666653   0.933307   0.190123
Zn      0.733471   0.866769   0.750267
Zn      0.666994   0.933988   0.500437
O       0.733012   0.866234   0.940375
O       0.666497   0.932994   0.690299
Zn      0.933316   0.066685   0.249796
Zn      0.866638   0.133363   0.999943
O       0.933322   0.066679   0.440052
O       0.866705   0.133296   0.190060
Zn      0.933367   0.066634   0.749914
Zn      0.866617   0.133384   0.500120
O       0.933321   0.066680   0.940021
O       0.866698   0.133303   0.690067
Zn      0.933106   0.266554   0.249704
Zn      0.866638   0.333276   0.999943
O       0.933395   0.266698   0.439872
O       0.866705   0.333410   0.190059
Zn      0.933245   0.266623   0.750029
Zn      0.866617   0.333235   0.500120
O       0.933368   0.266684   0.940049
O       0.866698   0.333396   0.690066
Zn      0.933316   0.466631   0.249796
Zn      0.866796   0.533330   0.999884
O       0.933322   0.466643   0.440050
O       0.866641   0.533427   0.190147
Zn      0.933367   0.466734   0.749914
Zn      0.866297   0.533068   0.499767
O       0.933321   0.466641   0.940020
O       0.866385   0.533305   0.689838
Zn      0.933608   0.666818   0.249937
Zn      0.866977   0.733488   0.999854
O       0.932939   0.666395   0.440065
O       0.866597   0.733298   0.190047
Zn      0.933519   0.666753   0.750002
Zn      0.866768   0.733384   0.499836
O       0.933206   0.666576   0.940067
O       0.866401   0.733201   0.689882
Zn      0.933608   0.866789   0.249937
Zn      0.866796   0.933467   0.999884
O       0.932939   0.866545   0.440066
O       0.866641   0.933215   0.190149
Zn      0.933519   0.866765   0.750003
Zn      0.866297   0.933229   0.499768
O       0.933206   0.866630   0.940068
O       0.866385   0.933080   0.689840


