&CONTROL
    calculation = "scf"
    max_seconds =  8.64000e+04
    pseudo_dir  = "C:\Users\Dimas\.burai\.pseudopot"
/

&SYSTEM
    degauss      =  1.00000e-02
    ecutrho      =  2.25000e+02
    ecutwfc      =  2.50000e+01
    hubbard_u(1) =  1.05000e+01
    hubbard_u(2) =  7.00000e+00
    ibrav        = 0
    lda_plus_u   = .TRUE.
    nat          = 200
    nbnd         = 1320
    ntyp         = 3
    occupations  = "fixed"
    smearing     = "gaussian"
    tot_charge   =  4.00000e+00
/

&ELECTRONS
    conv_thr         =  1.00000e-06
    electron_maxstep = 200
    mixing_beta      =  7.00000e-01
    startingpot      = "atomic"
    startingwfc      = "atomic+random"
/

K_POINTS {gamma}

CELL_PARAMETERS {angstrom}
 15.754130   0.000769  -0.000662
 -7.876399  13.643861   0.000662
 -0.000425   0.000246  10.105927

ATOMIC_SPECIES
Zn     65.39000  Zn.pbe-van.UPF
O      15.99940  O.pbe-rrkjus.UPF
Al     26.98154  Al.pbe-rrkj.UPF

ATOMIC_POSITIONS {crystal}
Zn      0.133673   0.066979   0.250080
Zn      0.066299   0.132728   0.999816
O       0.134186   0.067211   0.441460
O       0.067164   0.134048   0.190506
Zn      0.133089   0.065968   0.748735
Zn      0.066078   0.133290   0.498414
O       0.134373   0.067418   0.938712
O       0.067945   0.133627   0.689308
Zn      0.132985   0.266635   0.250608
Zn      0.067201   0.332566   0.998569
O       0.133991   0.267963   0.441661
O       0.067402   0.334912   0.189937
Zn      0.133103   0.266135   0.748996
Zn      0.065946   0.333883   0.499711
O       0.134636   0.266487   0.939124
O       0.068264   0.334140   0.690683
Zn      0.133759   0.467111   0.249989
Zn      0.066665   0.533259   0.998029
O       0.134114   0.467727   0.439778
O       0.066313   0.532170   0.189244
Zn      0.133612   0.467511   0.750640
Zn      0.065697   0.532825   0.500551
O       0.134559   0.466847   0.941767
O       0.066387   0.533509   0.691187
Zn      0.133052   0.665774   0.248901
Zn      0.065866   0.733685   0.999182
O       0.134240   0.665924   0.439041
O       0.067492   0.732641   0.190177
Zn      0.133326   0.667325   0.749981
Zn      0.067512   0.733118   0.498527
O       0.133648   0.667223   0.941383
O       0.065456   0.733165   0.689686
Zn      0.133261   0.866740   0.249024
Zn      0.066225   0.933776   0.999707
O       0.133718   0.866283   0.439632
O       0.066438   0.933563   0.190469
Zn      0.133568   0.866433   0.750107
Zn      0.066998   0.933003   0.498054
O       0.132993   0.867008   0.940429
O       0.066897   0.933104   0.689400
Zn      0.333108   0.066223   0.249697
Zn      0.266318   0.133371   0.000488
O       0.333296   0.066902   0.441074
O       0.268182   0.135357   0.189735
Zn      0.333282   0.066637   0.749365
Zn      0.266555   0.132922   0.498926
O       0.333501   0.068092   0.939443
O       0.272471   0.144486   0.694470
Zn      0.333534   0.267381   0.252621
Zn      0.266387   0.332322   0.000303
O       0.333867   0.267561   0.443090
O       0.267442   0.334474   0.189818
Al      0.333707   0.266908   0.749250
Zn      0.266205   0.333852   0.499760
O       0.334265   0.267308   0.924371
O       0.272994   0.329033   0.695078
Zn      0.333108   0.466642   0.250953
Zn      0.266857   0.532476   0.999530
O       0.332991   0.467204   0.441456
O       0.272365   0.543747   0.195003
Zn      0.333826   0.466890   0.750623
Zn      0.266188   0.533903   0.500692
O       0.333515   0.465812   0.941239
O       0.267910   0.533236   0.690049
Al      0.333356   0.666645   0.249350
Zn      0.266461   0.733540   0.998754
O       0.333516   0.666485   0.424411
O       0.272108   0.727893   0.194495
Zn      0.333566   0.666435   0.752758
Zn      0.266644   0.733357   0.500278
O       0.333760   0.666241   0.943124
O       0.267469   0.732532   0.689695
Zn      0.334227   0.866949   0.248901
Zn      0.266316   0.934135   0.999182
O       0.334077   0.865761   0.439041
O       0.267360   0.932509   0.190177
Zn      0.332676   0.866675   0.749981
Zn      0.266883   0.932489   0.498527
O       0.332778   0.866353   0.941383
O       0.266836   0.934545   0.689686
Zn      0.533273   0.066309   0.248985
Zn      0.466276   0.133096   0.000175
O       0.534605   0.067574   0.439063
O       0.467507   0.133947   0.190819
Zn      0.533312   0.067033   0.750176
Zn      0.466606   0.132536   0.499454
O       0.533989   0.067454   0.941488
O       0.466584   0.134366   0.690253
Zn      0.532890   0.266373   0.250484
Zn      0.466286   0.333915   0.001019
O       0.534347   0.267054   0.441107
O       0.467356   0.333949   0.190466
Zn      0.532947   0.265909   0.751684
Zn      0.467141   0.332432   0.499364
O       0.533134   0.267753   0.941905
O       0.457414   0.329047   0.695255
Zn      0.532861   0.467140   0.252322
Zn      0.466839   0.533162   0.000910
O       0.533858   0.466143   0.444019
O       0.466279   0.533722   0.191568
Zn      0.533473   0.466528   0.749188
Zn      0.466552   0.533449   0.499745
O       0.533387   0.466614   0.938670
O       0.467226   0.532775   0.690541
Zn      0.533359   0.666893   0.250953
Zn      0.467525   0.733144   0.999530
O       0.532797   0.667010   0.441456
O       0.456254   0.727636   0.195003
Zn      0.533111   0.666175   0.750623
Zn      0.466098   0.733813   0.500692
O       0.534189   0.666486   0.941239
O       0.466765   0.732091   0.690049
Zn      0.532890   0.866242   0.249989
Zn      0.466742   0.933336   0.998029
O       0.532274   0.865887   0.439778
O       0.467831   0.933688   0.189244
Zn      0.532490   0.866389   0.750640
Zn      0.467176   0.934304   0.500551
O       0.533154   0.865442   0.941767
O       0.466492   0.933614   0.691187
Zn      0.733225   0.065977   0.248777
Zn      0.666843   0.133163   0.999039
O       0.732947   0.067233   0.438909
O       0.671892   0.143845   0.194558
Zn      0.732850   0.066362   0.749558
Zn      0.667057   0.133446   0.500562
O       0.732584   0.066456   0.941102
O       0.667115   0.135218   0.689777
Al      0.733461   0.266540   0.249179
Zn      0.666059   0.333942   0.000733
O       0.733312   0.266689   0.424336
O       0.671686   0.328315   0.195833
Zn      0.732487   0.267514   0.752618
Zn      0.667387   0.332614   0.500187
O       0.732610   0.267391   0.942959
O       0.665230   0.334771   0.689931
Zn      0.733628   0.467111   0.250484
Zn      0.666086   0.533715   0.001019
O       0.732947   0.465654   0.441107
O       0.666052   0.532645   0.190466
Zn      0.734092   0.467054   0.751684
Zn      0.667569   0.532860   0.499364
O       0.732248   0.466867   0.941905
O       0.670954   0.542587   0.695255
Zn      0.732620   0.666467   0.252621
Zn      0.667679   0.733614   0.000303
O       0.732440   0.666134   0.443090
O       0.665527   0.732559   0.189818
Al      0.733093   0.666294   0.749250
Zn      0.666149   0.733796   0.499760
O       0.732693   0.665736   0.924371
O       0.670968   0.727007   0.695078
Zn      0.733366   0.867016   0.250608
Zn      0.667435   0.932800   0.998569
O       0.732038   0.866010   0.441661
O       0.665089   0.932599   0.189937
Zn      0.733866   0.866898   0.748996
Zn      0.666118   0.934055   0.499711
O       0.733514   0.865365   0.939124
O       0.665861   0.931737   0.690683
Zn      0.933081   0.066920   0.248512
Zn      0.866979   0.133022   0.997976
O       0.933001   0.067000   0.439306
O       0.865928   0.134073   0.189071
Zn      0.933630   0.066371   0.748127
Zn      0.866600   0.133401   0.499994
O       0.933530   0.066471   0.938971
O       0.866490   0.133511   0.690741
Zn      0.934024   0.266776   0.248777
Zn      0.866838   0.333158   0.999039
O       0.932768   0.267054   0.438909
O       0.856156   0.328109   0.194558
Zn      0.933639   0.267151   0.749558
Zn      0.866555   0.332944   0.500562
O       0.933545   0.267417   0.941102
O       0.864783   0.332886   0.689777
Zn      0.933692   0.466728   0.248985
Zn      0.866905   0.533725   0.000175
O       0.932427   0.465396   0.439063
O       0.866054   0.532494   0.190819
Zn      0.932968   0.466689   0.750176
Zn      0.867465   0.533395   0.499454
O       0.932547   0.466012   0.941488
O       0.865635   0.533417   0.690253
Zn      0.933778   0.666893   0.249697
Zn      0.866630   0.733683   0.000488
O       0.933099   0.666705   0.441074
O       0.864644   0.731819   0.189735
Zn      0.933364   0.666719   0.749365
Zn      0.867079   0.733446   0.498926
O       0.931909   0.666500   0.939443
O       0.855515   0.727530   0.694470
Zn      0.933022   0.866328   0.250080
Zn      0.867273   0.933702   0.999816
O       0.932790   0.865815   0.441460
O       0.865953   0.932837   0.190506
Zn      0.934033   0.866912   0.748735
Zn      0.866711   0.933923   0.498414
O       0.932583   0.865628   0.938712
O       0.866374   0.932056   0.689308


