&CONTROL
    calculation = "nscf"
    max_seconds =  8.64000e+04
    pseudo_dir  = "C:\Users\Dimas\.burai\.pseudopot"
/

&SYSTEM
    degauss      =  1.00000e-02
    ecutrho      =  2.25000e+02
    ecutwfc      =  2.50000e+01
    hubbard_u(1) =  1.05000e+01
    hubbard_u(2) =  7.00000e+00
    ibrav        = 0
    lda_plus_u   = .TRUE.
    nat          = 200
    nbnd         = 1300
    ntyp         = 3
    occupations  = "smearing"
    smearing     = "gaussian"
    tot_charge   =  5.00000e+00
/

&ELECTRONS
    conv_thr         =  1.00000e-06
    electron_maxstep = 200
    mixing_beta      =  7.00000e-01
    startingpot      = "atomic"
    startingwfc      = "atomic+random"
/

&DOS
    degauss =  1.00000e-02
    deltae  =  1.00000e-02
    emax    =  5.00000e+01
    emin    = -5.00000e+01
    ngauss  = 0
/

&PROJWFC
    degauss =  1.00000e-02
    deltae  =  1.00000e-02
    emax    =  5.00000e+01
    emin    = -5.00000e+01
    ngauss  = 0
/

K_POINTS {automatic}
 2  2  2  0 0 0

CELL_PARAMETERS {angstrom}
 15.728298   0.000216  -0.000693
 -7.863962  13.621213   0.000693
 -0.000446   0.000258  10.091632

ATOMIC_SPECIES
Zn     65.39000  Zn.pbe-van.UPF
O      15.99940  O.pbe-rrkjus.UPF
Al     26.98154  Al.pbe-rrkj.UPF

ATOMIC_POSITIONS {crystal}
Zn      0.133444   0.066635   0.248598
Zn      0.066196   0.132395   0.998132
O       0.134744   0.067913   0.439984
O       0.067367   0.134145   0.188917
Zn      0.132714   0.065820   0.746606
Zn      0.066168   0.133680   0.496045
O       0.134372   0.067448   0.936506
O       0.068299   0.134267   0.686821
Zn      0.131931   0.266076   0.249993
Zn      0.066925   0.332335   0.997522
O       0.135664   0.269875   0.441323
O       0.067247   0.334794   0.189013
Zn      0.132712   0.265808   0.749283
Zn      0.065206   0.333574   0.499958
O       0.135473   0.266900   0.939205
O       0.068484   0.334252   0.690637
Zn      0.132354   0.466566   0.249615
Zn      0.066593   0.533272   0.996622
O       0.136000   0.467698   0.439708
O       0.066368   0.532340   0.188025
Zn      0.133859   0.467481   0.751038
Zn      0.066057   0.532654   0.499754
O       0.135448   0.467111   0.942004
O       0.066806   0.533182   0.690390
Zn      0.132777   0.665920   0.247586
Zn      0.066069   0.733736   0.997341
O       0.134468   0.665581   0.437703
O       0.067152   0.732460   0.188400
Zn      0.133324   0.667373   0.748765
Zn      0.067345   0.732953   0.496328
O       0.133981   0.667193   0.940100
O       0.065785   0.733118   0.687411
Zn      0.133307   0.866694   0.246453
Zn      0.066294   0.933707   0.997494
O       0.133798   0.866203   0.437088
O       0.066434   0.933567   0.188305
Zn      0.133449   0.866552   0.747645
Zn      0.067010   0.932991   0.495199
O       0.133054   0.866947   0.938003
O       0.066773   0.933228   0.686589
Zn      0.332882   0.066165   0.249069
Zn      0.265871   0.132477   0.999488
O       0.333818   0.067819   0.440499
O       0.268165   0.135614   0.188731
Zn      0.333033   0.066085   0.747736
Zn      0.266759   0.133302   0.498786
O       0.333501   0.067994   0.937777
O       0.272807   0.145019   0.694067
Zn      0.332860   0.266446   0.253501
Zn      0.266237   0.331991   0.002923
O       0.334766   0.269286   0.444137
O       0.267846   0.335505   0.192932
Al      0.333505   0.266577   0.751050
Zn      0.265934   0.333532   0.502037
O       0.334336   0.267662   0.926034
O       0.273927   0.330123   0.696319
Zn      0.331785   0.466347   0.254286
Zn      0.266817   0.532239   0.002058
O       0.343746   0.472454   0.449786
O       0.272591   0.543239   0.198281
Zn      0.333558   0.466428   0.754982
Zn      0.266218   0.534379   0.502847
O       0.335044   0.466329   0.943794
O       0.269355   0.533104   0.691272
Al      0.333096   0.666905   0.250497
Zn      0.266370   0.733631   0.998616
O       0.334215   0.665786   0.425817
O       0.272230   0.727771   0.194427
Zn      0.333343   0.666658   0.755101
Zn      0.266443   0.733558   0.499849
O       0.334181   0.665820   0.945278
O       0.267904   0.732097   0.689024
Zn      0.334081   0.867224   0.247586
Zn      0.266265   0.933932   0.997341
O       0.334420   0.865533   0.437703
O       0.267541   0.932849   0.188400
Zn      0.332628   0.866677   0.748765
Zn      0.267048   0.932656   0.496328
O       0.332808   0.866020   0.940100
O       0.266883   0.934216   0.687411
Zn      0.533376   0.066243   0.248118
Zn      0.465844   0.132732   0.000022
O       0.534645   0.067312   0.438396
O       0.467564   0.134184   0.190885
Zn      0.533149   0.067054   0.749115
Zn      0.467308   0.133098   0.498490
O       0.533797   0.067556   0.940516
O       0.466693   0.134993   0.689339
Zn      0.533273   0.266169   0.250773
Zn      0.465888   0.333744   0.003914
O       0.534723   0.269140   0.441745
O       0.467601   0.334923   0.193882
Zn      0.532808   0.265667   0.753430
Zn      0.467182   0.332308   0.501990
O       0.532686   0.268226   0.943417
O       0.457596   0.330423   0.696848
Zn      0.533178   0.466823   0.255780
Zn      0.466871   0.533130   0.008819
O       0.528407   0.471594   0.452567
O       0.466079   0.533922   0.199555
Zn      0.533539   0.466462   0.753741
Al      0.466541   0.533460   0.504224
O       0.532655   0.467346   0.941730
O       0.467273   0.532728   0.679465
Zn      0.533654   0.668216   0.254286
Zn      0.467762   0.733184   0.002058
O       0.527547   0.656255   0.449786
O       0.456762   0.727410   0.198281
Zn      0.533573   0.666443   0.754982
Zn      0.465622   0.733783   0.502847
O       0.533672   0.664957   0.943794
O       0.466897   0.730646   0.691272
Zn      0.533435   0.867647   0.249615
Zn      0.466729   0.933408   0.996622
O       0.532303   0.864001   0.439708
O       0.467661   0.933633   0.188025
Zn      0.532520   0.866142   0.751038
Zn      0.467347   0.933944   0.499754
O       0.532890   0.864553   0.942004
O       0.466819   0.933195   0.690390
Zn      0.733770   0.066485   0.246872
Zn      0.666630   0.133088   0.998362
O       0.732924   0.066986   0.437152
O       0.671879   0.143777   0.193829
Zn      0.732959   0.066732   0.748529
Zn      0.667298   0.133329   0.499834
O       0.732367   0.066452   0.939873
O       0.667042   0.135341   0.688831
Al      0.733618   0.266383   0.248759
Zn      0.666130   0.333871   0.001165
O       0.733296   0.266705   0.424088
O       0.671685   0.328316   0.196369
Zn      0.732579   0.267422   0.752657
Zn      0.667906   0.332095   0.501831
O       0.732517   0.267484   0.942912
O       0.664963   0.335038   0.691239
Zn      0.733832   0.466728   0.250773
Zn      0.666257   0.534113   0.003914
O       0.730861   0.465278   0.441745
O       0.665078   0.532400   0.193882
Zn      0.734334   0.467193   0.753430
Zn      0.667693   0.532819   0.501990
O       0.731775   0.467315   0.943417
O       0.669578   0.542405   0.696848
Zn      0.733555   0.667141   0.253501
Zn      0.668010   0.733764   0.002923
O       0.730715   0.665235   0.444137
O       0.664496   0.732155   0.192932
Al      0.733424   0.666496   0.751050
Zn      0.666469   0.734067   0.502037
O       0.732339   0.665665   0.926034
O       0.669878   0.726074   0.696319
Zn      0.733925   0.868070   0.249993
Zn      0.667666   0.933076   0.997522
O       0.730126   0.864337   0.441323
O       0.665207   0.932754   0.189013
Zn      0.734193   0.867289   0.749283
Zn      0.666427   0.934795   0.499958
O       0.733101   0.864528   0.939205
O       0.665749   0.931517   0.690637
Zn      0.933077   0.066924   0.246181
Zn      0.867094   0.132907   0.995216
O       0.933032   0.066969   0.437109
O       0.866120   0.133881   0.186305
Zn      0.933736   0.066265   0.745479
Zn      0.866598   0.133403   0.498323
O       0.933683   0.066318   0.936361
O       0.866483   0.133518   0.688881
Zn      0.933516   0.266231   0.246872
Zn      0.866913   0.333371   0.998362
O       0.933015   0.267077   0.437152
O       0.856224   0.328122   0.193829
Zn      0.933269   0.267042   0.748529
Zn      0.866672   0.332703   0.499834
O       0.933549   0.267634   0.939873
O       0.864660   0.332959   0.688831
Zn      0.933758   0.466625   0.248118
Zn      0.867269   0.534157   0.000022
O       0.932689   0.465356   0.438396
O       0.865817   0.532437   0.190885
Zn      0.932947   0.466852   0.749115
Zn      0.866903   0.532693   0.498490
O       0.932445   0.466204   0.940516
O       0.865008   0.533308   0.689339
Zn      0.933836   0.667119   0.249069
Zn      0.867524   0.734130   0.999488
O       0.932182   0.666183   0.440499
O       0.864387   0.731836   0.188731
Zn      0.933916   0.666968   0.747736
Zn      0.866699   0.733242   0.498786
O       0.932007   0.666500   0.937777
O       0.854982   0.727194   0.694067
Zn      0.933366   0.866557   0.248598
Zn      0.867606   0.933805   0.998132
O       0.932088   0.865257   0.439984
O       0.865856   0.932634   0.188917
Zn      0.934181   0.867287   0.746606
Zn      0.866321   0.933833   0.496045
O       0.932553   0.865629   0.936506
O       0.865734   0.931702   0.686821


