&CONTROL
    calculation   = "vc-relax"
    forc_conv_thr =  1.00000e-03
    max_seconds   =  1.72800e+05
    nstep         = 100
    pseudo_dir    = "C:\Users\Dimas\.burai\.pseudopot"
/

&SYSTEM
    degauss      =  1.00000e-02
    ecutrho      =  2.25000e+02
    ecutwfc      =  2.50000e+01
    hubbard_u(1) =  1.05000e+01
    hubbard_u(2) =  7.00000e+00
    ibrav        = 0
    lda_plus_u   = .TRUE.
    nat          = 200
    nbnd         = 1320
    nspin        = 1
    ntyp         = 3
    occupations  = "fixed"
    smearing     = "gaussian"
    tot_charge   =  3.00000e+00
/

&ELECTRONS
    conv_thr         =  1.00000e-06
    electron_maxstep = 200
    mixing_beta      =  7.00000e-01
    startingpot      = "atomic"
    startingwfc      = "atomic+random"
/

&IONS
    ion_dynamics = "bfgs"
/

&CELL
    cell_dofree    = "all"
    cell_dynamics  = "bfgs"
    press          =  0.00000e+00
    press_conv_thr =  5.00000e-01
/

K_POINTS {gamma}

CELL_PARAMETERS {angstrom}
 15.778844   0.000135  -0.000439
 -7.889305  13.664948   0.000439
 -0.000282   0.000163  10.122371

ATOMIC_SPECIES
Zn     65.39000  Zn.pbe-van.UPF
O      15.99940  O.pbe-rrkjus.UPF
Al     26.98154  Al.pbe-rrkj.UPF

ATOMIC_POSITIONS {crystal}
Zn      0.133322   0.067047   0.248692
Zn      0.066712   0.133081   0.998624
O       0.133944   0.066728   0.439641
O       0.066575   0.133851   0.189491
Zn      0.134031   0.066908   0.748220
Zn      0.066730   0.133348   0.498538
O       0.134139   0.067030   0.938967
O       0.067386   0.133786   0.689286
Zn      0.132795   0.266848   0.248671
Zn      0.067177   0.333420   0.998379
O       0.133345   0.267664   0.439531
O       0.065135   0.333757   0.189563
Zn      0.133754   0.266869   0.748490
Zn      0.066038   0.333323   0.499526
O       0.133905   0.267109   0.939372
O       0.066771   0.334162   0.690188
Zn      0.133646   0.466300   0.249492
Zn      0.067278   0.533683   0.999801
O       0.133563   0.467916   0.440245
O       0.065394   0.532260   0.191524
Zn      0.134119   0.466964   0.750044
Zn      0.066158   0.533038   0.500224
O       0.134397   0.467647   0.940585
O       0.067128   0.534063   0.690163
Zn      0.132534   0.665569   0.249358
Zn      0.066800   0.733458   0.000676
O       0.143857   0.671475   0.444770
O       0.066767   0.732153   0.191903
Zn      0.133578   0.666827   0.751012
Zn      0.066994   0.733790   0.499349
O       0.134595   0.667223   0.940017
O       0.067829   0.733095   0.689283
Zn      0.133111   0.866890   0.248346
Zn      0.066437   0.933564   0.998630
O       0.134046   0.865955   0.439201
O       0.066674   0.933327   0.189558
Zn      0.133174   0.866827   0.750534
Zn      0.066808   0.933193   0.498614
O       0.133665   0.866336   0.940905
O       0.066954   0.933047   0.689445
Zn      0.333991   0.067335   0.248472
Zn      0.266673   0.133760   0.999588
O       0.334232   0.065242   0.439594
O       0.267930   0.134467   0.190471
Zn      0.332526   0.065381   0.750316
Zn      0.266769   0.132413   0.498230
O       0.333468   0.066479   0.940747
O       0.269060   0.134722   0.689229
Zn      0.334229   0.267251   0.250172
Zn      0.266274   0.333056   0.000371
O       0.334830   0.267292   0.441566
O       0.267350   0.333761   0.191181
Zn      0.332713   0.266577   0.749418
Zn      0.266308   0.333403   0.498113
O       0.334767   0.268005   0.939467
O       0.268409   0.334839   0.689000
Zn      0.333916   0.466525   0.250373
Zn      0.267335   0.533393   0.000715
O       0.334352   0.468929   0.441769
O       0.267531   0.533857   0.192036
Zn      0.332968   0.466802   0.750204
Zn      0.266038   0.533413   0.499621
O       0.334353   0.467062   0.939965
O       0.268542   0.534874   0.689693
Zn      0.333580   0.666421   0.249755
Zn      0.266642   0.733359   0.003518
O       0.327930   0.672071   0.445036
O       0.266677   0.733324   0.193880
Zn      0.332840   0.667161   0.751637
Al      0.266544   0.733457   0.499196
O       0.332810   0.667191   0.940359
O       0.266734   0.733267   0.674197
Zn      0.334432   0.867467   0.249358
Zn      0.266543   0.933201   0.000676
O       0.328526   0.856144   0.444770
O       0.267848   0.933234   0.191903
Zn      0.333174   0.866423   0.751012
Zn      0.266211   0.933007   0.499349
O       0.332778   0.865406   0.940017
O       0.266906   0.932172   0.689283
Zn      0.533656   0.067343   0.249250
Zn      0.466317   0.133755   0.999220
O       0.532810   0.066443   0.439662
O       0.468586   0.134998   0.190083
Zn      0.532723   0.066429   0.750718
Zn      0.466362   0.133131   0.501062
O       0.533435   0.066785   0.941896
O       0.466927   0.134891   0.691479
Zn      0.533290   0.266891   0.251051
Zn      0.466374   0.333826   0.000680
O       0.534314   0.266986   0.441538
O       0.469271   0.334920   0.189957
Zn      0.533642   0.266866   0.751314
Zn      0.466730   0.332416   0.500513
O       0.534166   0.268413   0.941605
O       0.472575   0.343917   0.695510
Zn      0.533141   0.466860   0.254173
Zn      0.466739   0.533262   0.000526
O       0.533602   0.466399   0.444157
O       0.467505   0.532496   0.189665
Al      0.533307   0.466694   0.749772
Zn      0.466729   0.533272   0.500674
O       0.533327   0.466674   0.924572
O       0.471977   0.528024   0.695481
Zn      0.533476   0.666085   0.250373
Zn      0.466608   0.732666   0.000715
O       0.531072   0.665649   0.441769
O       0.466144   0.732470   0.192036
Zn      0.533199   0.667033   0.750204
Zn      0.466588   0.733963   0.499621
O       0.532939   0.665648   0.939965
O       0.465127   0.731459   0.689693
Zn      0.533701   0.866355   0.249492
Zn      0.466318   0.932723   0.999801
O       0.532085   0.866438   0.440245
O       0.467741   0.934607   0.191524
Zn      0.533037   0.865882   0.750044
Zn      0.466963   0.933843   0.500224
O       0.532354   0.865604   0.940585
O       0.465938   0.932873   0.690163
Zn      0.733872   0.066798   0.249739
Zn      0.666382   0.132739   0.999369
O       0.732730   0.067838   0.439661
O       0.671883   0.144175   0.195023
Zn      0.732963   0.066655   0.750001
Zn      0.666050   0.133012   0.500783
O       0.732636   0.066991   0.941278
O       0.666240   0.134648   0.689761
Al      0.733424   0.266577   0.249725
Zn      0.666539   0.333462   0.001008
O       0.733309   0.266692   0.424762
O       0.671874   0.328127   0.196136
Zn      0.733244   0.266757   0.753013
Zn      0.667220   0.332781   0.500997
O       0.733047   0.266954   0.943376
O       0.666644   0.333357   0.689982
Zn      0.733110   0.466711   0.251051
Zn      0.666175   0.533627   0.000680
O       0.733015   0.465687   0.441538
O       0.665081   0.530730   0.189957
Zn      0.733135   0.466359   0.751314
Zn      0.667585   0.533271   0.500513
O       0.731588   0.465835   0.941605
O       0.656084   0.527426   0.695510
Zn      0.732750   0.665772   0.250172
Zn      0.666945   0.733727   0.000371
O       0.732709   0.665171   0.441566
O       0.666240   0.732651   0.191181
Zn      0.733424   0.667288   0.749418
Zn      0.666598   0.733693   0.498113
O       0.731996   0.665234   0.939467
O       0.665162   0.731592   0.689000
Zn      0.733153   0.867206   0.248671
Zn      0.666581   0.932824   0.998379
O       0.732337   0.866656   0.439531
O       0.666244   0.934866   0.189563
Zn      0.733132   0.866247   0.748490
Zn      0.666678   0.933963   0.499526
O       0.732892   0.866096   0.939372
O       0.665839   0.933230   0.690188
Zn      0.933138   0.066863   0.248771
Zn      0.867068   0.132933   0.998393
O       0.932979   0.067022   0.439565
O       0.865914   0.134087   0.189305
Zn      0.933584   0.066417   0.748407
Zn      0.866714   0.133287   0.500427
O       0.933362   0.066639   0.939168
O       0.866204   0.133797   0.690873
Zn      0.933203   0.266129   0.249739
Zn      0.867262   0.333619   0.999369
O       0.932163   0.267271   0.439661
O       0.855826   0.328118   0.195023
Zn      0.933346   0.267038   0.750001
Zn      0.866989   0.333951   0.500783
O       0.933010   0.267365   0.941278
O       0.865353   0.333761   0.689761
Zn      0.932658   0.466345   0.249250
Zn      0.866246   0.533684   0.999220
O       0.933558   0.467191   0.439662
O       0.865003   0.531415   0.190083
Zn      0.933572   0.467278   0.750718
Zn      0.866870   0.533639   0.501062
O       0.933216   0.466566   0.941896
O       0.865110   0.533074   0.691479
Zn      0.932666   0.666010   0.248472
Zn      0.866241   0.733328   0.999588
O       0.934759   0.665769   0.439594
O       0.865534   0.732071   0.190471
Zn      0.934620   0.667475   0.750316
Zn      0.867588   0.733232   0.498230
O       0.933522   0.666533   0.940747
O       0.865279   0.730941   0.689229
Zn      0.932954   0.866679   0.248692
Zn      0.866920   0.933289   0.998624
O       0.933273   0.866057   0.439641
O       0.866150   0.933426   0.189491
Zn      0.933093   0.865970   0.748220
Zn      0.866653   0.933271   0.498538
O       0.932971   0.865862   0.938967
O       0.866215   0.932615   0.689286


