&CONTROL
    pseudo_dir = "C:\Users\Dimas\.burai\.pseudopot"
/

&SYSTEM
    a     =  1.59794e+01
    c     =  1.02595e+01
    ibrav = 4
    nat   = 200
    ntyp  = 2
/

ATOMIC_SPECIES
Zn     65.39000  Zn.pbe-van.UPF
O      15.99940  O.pbe-rrkjus.UPF

ATOMIC_POSITIONS {crystal}
Zn      0.133334   0.066667   0.249846
Zn      0.066667   0.133334   0.999847
O       0.133334   0.066667   0.440312
O       0.066667   0.133334   0.190312
Zn      0.133334   0.066667   0.749846
Zn      0.066667   0.133334   0.499847
O       0.133334   0.066667   0.940312
O       0.066667   0.133334   0.690313
Zn      0.133334   0.266667   0.249847
Zn      0.066667   0.333334   0.999846
O       0.133334   0.266667   0.440312
O       0.066667   0.333334   0.190313
Zn      0.133334   0.266667   0.749847
Zn      0.066667   0.333334   0.499847
O       0.133334   0.266667   0.940312
O       0.066667   0.333334   0.690313
Zn      0.133334   0.466667   0.249846
Zn      0.066667   0.533334   0.999847
O       0.133334   0.466667   0.440313
O       0.066667   0.533334   0.190313
Zn      0.133334   0.466667   0.749846
Zn      0.066667   0.533334   0.499847
O       0.133334   0.466667   0.940313
O       0.066667   0.533334   0.690313
Zn      0.133334   0.666667   0.249846
Zn      0.066667   0.733334   0.999846
O       0.133334   0.666667   0.440313
O       0.066667   0.733334   0.190313
Zn      0.133334   0.666667   0.749846
Zn      0.066667   0.733334   0.499847
O       0.133334   0.666667   0.940313
O       0.066667   0.733334   0.690313
Zn      0.133334   0.866667   0.249847
Zn      0.066667   0.933334   0.999847
O       0.133334   0.866667   0.440312
O       0.066667   0.933334   0.190312
Zn      0.133334   0.866667   0.749847
Zn      0.066667   0.933334   0.499847
O       0.133334   0.866667   0.940312
O       0.066667   0.933334   0.690313
Zn      0.333334   0.066667   0.249847
Zn      0.266667   0.133334   0.999847
O       0.333334   0.066667   0.440312
O       0.266667   0.133334   0.190312
Zn      0.333334   0.066667   0.749847
Zn      0.266667   0.133334   0.499847
O       0.333334   0.066667   0.940312
O       0.266667   0.133334   0.690313
Zn      0.333334   0.266667   0.249847
Zn      0.266667   0.333334   0.999846
O       0.333334   0.266667   0.440312
O       0.266667   0.333334   0.190313
Zn      0.333334   0.266667   0.749847
Zn      0.266667   0.333334   0.499847
O       0.333334   0.266667   0.940312
O       0.266667   0.333334   0.690313
Zn      0.333334   0.466667   0.249846
Zn      0.266667   0.533334   0.999847
O       0.333334   0.466667   0.440313
O       0.266667   0.533334   0.190313
Zn      0.333334   0.466667   0.749846
Zn      0.266667   0.533334   0.499847
O       0.333334   0.466667   0.940313
O       0.266667   0.533334   0.690313
Zn      0.333334   0.666667   0.249846
Zn      0.266667   0.733334   0.999847
O       0.333334   0.666667   0.440312
O       0.266667   0.733334   0.190313
Zn      0.333334   0.666667   0.749847
Zn      0.266667   0.733334   0.499847
O       0.333334   0.666667   0.940313
O       0.266667   0.733334   0.690313
Zn      0.333334   0.866667   0.249846
Zn      0.266667   0.933334   0.999846
O       0.333334   0.866667   0.440313
O       0.266667   0.933334   0.190313
Zn      0.333334   0.866667   0.749846
Zn      0.266667   0.933334   0.499847
O       0.333334   0.866667   0.940313
O       0.266667   0.933334   0.690313
Zn      0.533334   0.066667   0.249846
Zn      0.466667   0.133334   0.999846
O       0.533334   0.066667   0.440312
O       0.466667   0.133334   0.190312
Zn      0.533334   0.066667   0.749847
Zn      0.466667   0.133334   0.499847
O       0.533334   0.066667   0.940312
O       0.466667   0.133334   0.690313
Zn      0.533334   0.266667   0.249847
Zn      0.466667   0.333334   0.999846
O       0.533334   0.266667   0.440312
O       0.466667   0.333334   0.190312
Zn      0.533334   0.266667   0.749847
Zn      0.466667   0.333334   0.499847
O       0.533334   0.266667   0.940312
O       0.466667   0.333334   0.690313
Zn      0.533334   0.466667   0.249846
Zn      0.466667   0.533334   0.999847
O       0.533334   0.466667   0.440312
O       0.466667   0.533334   0.190313
Zn      0.533334   0.466667   0.749847
Zn      0.466667   0.533334   0.499847
O       0.533334   0.466667   0.940312
O       0.466667   0.533334   0.690313
Zn      0.533334   0.666667   0.249846
Zn      0.466667   0.733334   0.999847
O       0.533334   0.666667   0.440313
O       0.466667   0.733334   0.190313
Zn      0.533334   0.666667   0.749846
Zn      0.466667   0.733334   0.499847
O       0.533334   0.666667   0.940313
O       0.466667   0.733334   0.690313
Zn      0.533334   0.866667   0.249846
Zn      0.466667   0.933334   0.999847
O       0.533334   0.866667   0.440313
O       0.466667   0.933334   0.190313
Zn      0.533334   0.866667   0.749846
Zn      0.466667   0.933334   0.499847
O       0.533334   0.866667   0.940313
O       0.466667   0.933334   0.690313
Zn      0.733334   0.066667   0.249847
Zn      0.666667   0.133334   0.999846
O       0.733334   0.066667   0.440312
O       0.666667   0.133334   0.190312
Zn      0.733334   0.066667   0.749847
Zn      0.666667   0.133334   0.499847
O       0.733334   0.066667   0.940312
O       0.666667   0.133334   0.690313
Zn      0.733334   0.266667   0.249847
Zn      0.666667   0.333334   0.999846
O       0.733334   0.266667   0.440312
O       0.666667   0.333334   0.190312
Zn      0.733334   0.266667   0.749847
Zn      0.666667   0.333334   0.499847
O       0.733334   0.266667   0.940312
O       0.666667   0.333334   0.690313
Zn      0.733334   0.466667   0.249847
Zn      0.666667   0.533334   0.999846
O       0.733334   0.466667   0.440312
O       0.666667   0.533334   0.190312
Zn      0.733334   0.466667   0.749847
Zn      0.666667   0.533334   0.499847
O       0.733334   0.466667   0.940312
O       0.666667   0.533334   0.690313
Zn      0.733334   0.666667   0.249847
Zn      0.666667   0.733334   0.999846
O       0.733334   0.666667   0.440312
O       0.666667   0.733334   0.190313
Zn      0.733334   0.666667   0.749847
Zn      0.666667   0.733334   0.499847
O       0.733334   0.666667   0.940312
O       0.666667   0.733334   0.690313
Zn      0.733334   0.866667   0.249847
Zn      0.666667   0.933334   0.999846
O       0.733334   0.866667   0.440312
O       0.666667   0.933334   0.190313
Zn      0.733334   0.866667   0.749847
Zn      0.666667   0.933334   0.499847
O       0.733334   0.866667   0.940312
O       0.666667   0.933334   0.690313
Zn      0.933334   0.066667   0.249846
Zn      0.866667   0.133334   0.999847
O       0.933334   0.066667   0.440312
O       0.866667   0.133334   0.190312
Zn      0.933334   0.066667   0.749846
Zn      0.866667   0.133334   0.499847
O       0.933334   0.066667   0.940312
O       0.866667   0.133334   0.690313
Zn      0.933334   0.266667   0.249847
Zn      0.866667   0.333334   0.999846
O       0.933334   0.266667   0.440312
O       0.866667   0.333334   0.190312
Zn      0.933334   0.266667   0.749847
Zn      0.866667   0.333334   0.499847
O       0.933334   0.266667   0.940312
O       0.866667   0.333334   0.690313
Zn      0.933334   0.466667   0.249846
Zn      0.866667   0.533334   0.999846
O       0.933334   0.466667   0.440312
O       0.866667   0.533334   0.190312
Zn      0.933334   0.466667   0.749847
Zn      0.866667   0.533334   0.499847
O       0.933334   0.466667   0.940312
O       0.866667   0.533334   0.690313
Zn      0.933334   0.666667   0.249847
Zn      0.866667   0.733334   0.999847
O       0.933334   0.666667   0.440312
O       0.866667   0.733334   0.190312
Zn      0.933334   0.666667   0.749847
Zn      0.866667   0.733334   0.499847
O       0.933334   0.666667   0.940312
O       0.866667   0.733334   0.690313
Zn      0.933334   0.866667   0.249846
Zn      0.866667   0.933334   0.999847
O       0.933334   0.866667   0.440312
O       0.866667   0.933334   0.190312
Zn      0.933334   0.866667   0.749846
Zn      0.866667   0.933334   0.499847
O       0.933334   0.866667   0.940312
O       0.866667   0.933334   0.690313


