&CONTROL
    calculation = "md"
    dt          =  1.03353e+01
    max_seconds =  6.04800e+05
    nstep       = 5000
    pseudo_dir  = "C:\Users\Dimas\.burai\.pseudopot"
/

&SYSTEM
    a            =  1.59794e+01
    c            =  1.02595e+01
    degauss      =  1.00000e-02
    ecutrho      =  2.25000e+02
    ecutwfc      =  2.50000e+01
    hubbard_u(1) =  1.05000e+01
    hubbard_u(2) =  7.00000e+00
    ibrav        = 4
    lda_plus_u   = .TRUE.
    nat          = 200
    nbnd         = 1320
    ntyp         = 2
    occupations  = "fixed"
    smearing     = "gaussian"
/

&ELECTRONS
    conv_thr         =  1.00000e-06
    electron_maxstep = 200
    mixing_beta      =  7.00000e-01
    startingpot      = "atomic"
    startingwfc      = "atomic+random"
/

&IONS
    ion_dynamics = "verlet"
/

&CELL
/

K_POINTS {gamma}

ATOMIC_SPECIES
Zn     65.39000  Zn.pbe-van.UPF
O      15.99940  O.pbe-rrkjus.UPF

ATOMIC_POSITIONS {crystal}
Zn      0.133334   0.066667   0.249846
Zn      0.066667   0.133334   0.999847
O       0.133334   0.066667   0.440312
O       0.066667   0.133334   0.190312
Zn      0.133334   0.066667   0.749846
Zn      0.066667   0.133334   0.499847
O       0.133334   0.066667   0.940312
O       0.066667   0.133334   0.690313
Zn      0.133334   0.266667   0.249847
Zn      0.066667   0.333334   0.999846
O       0.133334   0.266667   0.440312
O       0.066667   0.333334   0.190313
Zn      0.133334   0.266667   0.749847
Zn      0.066667   0.333334   0.499847
O       0.133334   0.266667   0.940312
O       0.066667   0.333334   0.690313
Zn      0.133334   0.466667   0.249846
Zn      0.066667   0.533334   0.999847
O       0.133334   0.466667   0.440313
O       0.066667   0.533334   0.190313
Zn      0.133334   0.466667   0.749846
Zn      0.066667   0.533334   0.499847
O       0.133334   0.466667   0.940313
O       0.066667   0.533334   0.690313
Zn      0.133334   0.666667   0.249846
Zn      0.066667   0.733334   0.999846
O       0.133334   0.666667   0.440313
O       0.066667   0.733334   0.190313
Zn      0.133334   0.666667   0.749846
Zn      0.066667   0.733334   0.499847
O       0.133334   0.666667   0.940313
O       0.066667   0.733334   0.690313
Zn      0.133334   0.866667   0.249847
Zn      0.066667   0.933334   0.999847
O       0.133334   0.866667   0.440312
O       0.066667   0.933334   0.190312
Zn      0.133334   0.866667   0.749847
Zn      0.066667   0.933334   0.499847
O       0.133334   0.866667   0.940312
O       0.066667   0.933334   0.690313
Zn      0.333334   0.066667   0.249847
Zn      0.266667   0.133334   0.999847
O       0.333334   0.066667   0.440312
O       0.266667   0.133334   0.190312
Zn      0.333334   0.066667   0.749847
Zn      0.266667   0.133334   0.499847
O       0.333334   0.066667   0.940312
O       0.266667   0.133334   0.690313
Zn      0.333334   0.266667   0.249847
Zn      0.266667   0.333334   0.999846
O       0.333334   0.266667   0.440312
O       0.266667   0.333334   0.190313
Zn      0.333334   0.266667   0.749847
Zn      0.266667   0.333334   0.499847
O       0.333334   0.266667   0.940312
O       0.266667   0.333334   0.690313
Zn      0.333334   0.466667   0.249846
Zn      0.266667   0.533334   0.999847
O       0.333334   0.466667   0.440313
O       0.266667   0.533334   0.190313
Zn      0.333334   0.466667   0.749846
Zn      0.266667   0.533334   0.499847
O       0.333334   0.466667   0.940313
O       0.266667   0.533334   0.690313
Zn      0.333334   0.666667   0.249846
Zn      0.266667   0.733334   0.999847
O       0.333334   0.666667   0.440312
O       0.266667   0.733334   0.190313
Zn      0.333334   0.666667   0.749847
Zn      0.266667   0.733334   0.499847
O       0.333334   0.666667   0.940313
O       0.266667   0.733334   0.690313
Zn      0.333334   0.866667   0.249846
Zn      0.266667   0.933334   0.999846
O       0.333334   0.866667   0.440313
O       0.266667   0.933334   0.190313
Zn      0.333334   0.866667   0.749846
Zn      0.266667   0.933334   0.499847
O       0.333334   0.866667   0.940313
O       0.266667   0.933334   0.690313
Zn      0.533334   0.066667   0.249846
Zn      0.466667   0.133334   0.999846
O       0.533334   0.066667   0.440312
O       0.466667   0.133334   0.190312
Zn      0.533334   0.066667   0.749847
Zn      0.466667   0.133334   0.499847
O       0.533334   0.066667   0.940312
O       0.466667   0.133334   0.690313
Zn      0.533334   0.266667   0.249847
Zn      0.466667   0.333334   0.999846
O       0.533334   0.266667   0.440312
O       0.466667   0.333334   0.190312
Zn      0.533334   0.266667   0.749847
Zn      0.466667   0.333334   0.499847
O       0.533334   0.266667   0.940312
O       0.466667   0.333334   0.690313
Zn      0.533334   0.466667   0.249846
Zn      0.466667   0.533334   0.999847
O       0.533334   0.466667   0.440312
O       0.466667   0.533334   0.190313
Zn      0.533334   0.466667   0.749847
Zn      0.466667   0.533334   0.499847
O       0.533334   0.466667   0.940312
O       0.466667   0.533334   0.690313
Zn      0.533334   0.666667   0.249846
Zn      0.466667   0.733334   0.999847
O       0.533334   0.666667   0.440313
O       0.466667   0.733334   0.190313
Zn      0.533334   0.666667   0.749846
Zn      0.466667   0.733334   0.499847
O       0.533334   0.666667   0.940313
O       0.466667   0.733334   0.690313
Zn      0.533334   0.866667   0.249846
Zn      0.466667   0.933334   0.999847
O       0.533334   0.866667   0.440313
O       0.466667   0.933334   0.190313
Zn      0.533334   0.866667   0.749846
Zn      0.466667   0.933334   0.499847
O       0.533334   0.866667   0.940313
O       0.466667   0.933334   0.690313
Zn      0.733334   0.066667   0.249847
Zn      0.666667   0.133334   0.999846
O       0.733334   0.066667   0.440312
O       0.666667   0.133334   0.190312
Zn      0.733334   0.066667   0.749847
Zn      0.666667   0.133334   0.499847
O       0.733334   0.066667   0.940312
O       0.666667   0.133334   0.690313
Zn      0.733334   0.266667   0.249847
Zn      0.666667   0.333334   0.999846
O       0.733334   0.266667   0.440312
O       0.666667   0.333334   0.190312
Zn      0.733334   0.266667   0.749847
Zn      0.666667   0.333334   0.499847
O       0.733334   0.266667   0.940312
O       0.666667   0.333334   0.690313
Zn      0.733334   0.466667   0.249847
Zn      0.666667   0.533334   0.999846
O       0.733334   0.466667   0.440312
O       0.666667   0.533334   0.190312
Zn      0.733334   0.466667   0.749847
Zn      0.666667   0.533334   0.499847
O       0.733334   0.466667   0.940312
O       0.666667   0.533334   0.690313
Zn      0.733334   0.666667   0.249847
Zn      0.666667   0.733334   0.999846
O       0.733334   0.666667   0.440312
O       0.666667   0.733334   0.190313
Zn      0.733334   0.666667   0.749847
Zn      0.666667   0.733334   0.499847
O       0.733334   0.666667   0.940312
O       0.666667   0.733334   0.690313
Zn      0.733334   0.866667   0.249847
Zn      0.666667   0.933334   0.999846
O       0.733334   0.866667   0.440312
O       0.666667   0.933334   0.190313
Zn      0.733334   0.866667   0.749847
Zn      0.666667   0.933334   0.499847
O       0.733334   0.866667   0.940312
O       0.666667   0.933334   0.690313
Zn      0.933334   0.066667   0.249846
Zn      0.866667   0.133334   0.999847
O       0.933334   0.066667   0.440312
O       0.866667   0.133334   0.190312
Zn      0.933334   0.066667   0.749846
Zn      0.866667   0.133334   0.499847
O       0.933334   0.066667   0.940312
O       0.866667   0.133334   0.690313
Zn      0.933334   0.266667   0.249847
Zn      0.866667   0.333334   0.999846
O       0.933334   0.266667   0.440312
O       0.866667   0.333334   0.190312
Zn      0.933334   0.266667   0.749847
Zn      0.866667   0.333334   0.499847
O       0.933334   0.266667   0.940312
O       0.866667   0.333334   0.690313
Zn      0.933334   0.466667   0.249846
Zn      0.866667   0.533334   0.999846
O       0.933334   0.466667   0.440312
O       0.866667   0.533334   0.190312
Zn      0.933334   0.466667   0.749847
Zn      0.866667   0.533334   0.499847
O       0.933334   0.466667   0.940312
O       0.866667   0.533334   0.690313
Zn      0.933334   0.666667   0.249847
Zn      0.866667   0.733334   0.999847
O       0.933334   0.666667   0.440312
O       0.866667   0.733334   0.190312
Zn      0.933334   0.666667   0.749847
Zn      0.866667   0.733334   0.499847
O       0.933334   0.666667   0.940312
O       0.866667   0.733334   0.690313
Zn      0.933334   0.866667   0.249846
Zn      0.866667   0.933334   0.999847
O       0.933334   0.866667   0.440312
O       0.866667   0.933334   0.190312
Zn      0.933334   0.866667   0.749846
Zn      0.866667   0.933334   0.499847
O       0.933334   0.866667   0.940312
O       0.866667   0.933334   0.690313


