&CONTROL
    calculation = "bands"
    max_seconds =  8.64000e+04
    pseudo_dir  = "C:\Users\Dimas\.burai\.pseudopot"
/

&SYSTEM
    degauss      =  1.00000e-02
    ecutrho      =  2.25000e+02
    ecutwfc      =  2.50000e+01
    hubbard_u(1) =  1.05000e+01
    hubbard_u(2) =  7.00000e+00
    ibrav        = 0
    lda_plus_u   = .TRUE.
    nat          = 200
    nbnd         = 1290
    ntyp         = 3
    occupations  = "fixed"
    smearing     = "gaussian"
    tot_charge   =  2.00000e+00
/

&ELECTRONS
    conv_thr         =  1.00000e-06
    electron_maxstep = 200
    mixing_beta      =  7.00000e-01
    startingpot      = "atomic"
    startingwfc      = "atomic+random"
/

&BANDS
    lsym           = .FALSE.
    spin_component = 1
/

K_POINTS {tpiba_b}
12
gG     20
M      20
K      20
gG     20
A      20
L      20
H      20
A      0
L      20
M      0
K      20
H      0

CELL_PARAMETERS {angstrom}
 15.802003   0.000607   0.000071
 -7.900476  13.685240  -0.000071
  0.000045  -0.000026  10.137411

ATOMIC_SPECIES
Zn     65.39000  Zn.pbe-van.UPF
O      15.99940  O.pbe-rrkjus.UPF
Al     26.98154  Al.pbe-rrkj.UPF

ATOMIC_POSITIONS {crystal}
Zn      0.133503   0.066982   0.248866
Zn      0.066826   0.133212   0.999458
O       0.133571   0.066861   0.439529
O       0.066448   0.133877   0.190084
Zn      0.133250   0.066620   0.749245
Zn      0.066596   0.133046   0.498770
O       0.133399   0.066660   0.939829
O       0.066657   0.133617   0.689550
Zn      0.133010   0.267000   0.248857
Zn      0.067551   0.334155   0.999591
O       0.132857   0.266930   0.439570
O       0.065422   0.334390   0.190475
Zn      0.133076   0.266082   0.750040
Zn      0.065738   0.332396   0.499593
O       0.133468   0.267255   0.940583
O       0.067749   0.334833   0.690494
Zn      0.134197   0.467053   0.251512
Zn      0.066900   0.533505   0.000515
O       0.133592   0.466850   0.442391
O       0.065630   0.531734   0.191234
Zn      0.133469   0.466853   0.749937
Zn      0.065340   0.532695   0.499597
O       0.134681   0.468083   0.939801
O       0.067349   0.533506   0.690338
Zn      0.133353   0.666027   0.250427
Zn      0.067028   0.733344   0.999957
O       0.133743   0.666354   0.441633
O       0.066997   0.732328   0.190584
Zn      0.133201   0.666426   0.750003
Zn      0.066351   0.733706   0.498810
O       0.134524   0.666483   0.939944
O       0.068552   0.733340   0.689793
Zn      0.133382   0.866619   0.248883
Zn      0.066697   0.933304   0.999494
O       0.133412   0.866589   0.439603
O       0.066718   0.933283   0.190082
Zn      0.133015   0.866986   0.749942
Zn      0.066532   0.933469   0.498841
O       0.133652   0.866349   0.940372
O       0.066748   0.933253   0.689594
Zn      0.333679   0.066860   0.249044
Zn      0.266636   0.133291   0.998993
O       0.334073   0.066859   0.439888
O       0.267442   0.133808   0.189797
Zn      0.332606   0.065816   0.748848
Zn      0.266668   0.133351   0.498996
O       0.333214   0.065990   0.939596
O       0.266964   0.133496   0.689836
Zn      0.334029   0.267162   0.248871
Zn      0.266917   0.333767   0.999820
O       0.334120   0.267078   0.439704
O       0.266902   0.334144   0.190571
Zn      0.332781   0.266925   0.748858
Zn      0.266240   0.332400   0.498664
O       0.333252   0.267083   0.939686
O       0.266426   0.335056   0.689736
Zn      0.333221   0.466836   0.250911
Zn      0.266994   0.533603   0.000890
O       0.332895   0.467077   0.441957
O       0.267222   0.534750   0.189914
Zn      0.333562   0.466704   0.749998
Zn      0.266295   0.532710   0.500028
O       0.333316   0.467921   0.939769
O       0.272009   0.544199   0.695240
Zn      0.333382   0.666619   0.253800
Zn      0.266690   0.733311   0.001105
O       0.333290   0.666711   0.443885
O       0.267374   0.732627   0.190188
Al      0.333300   0.666701   0.749761
Zn      0.266227   0.733774   0.499561
O       0.333257   0.666744   0.924548
O       0.272055   0.727946   0.695021
Zn      0.333974   0.866648   0.250427
Zn      0.266657   0.932973   0.999957
O       0.333647   0.866258   0.441633
O       0.267673   0.933004   0.190584
Zn      0.333575   0.866800   0.750003
Zn      0.266295   0.933650   0.498810
O       0.333518   0.865477   0.939944
O       0.266661   0.931449   0.689793
Zn      0.533283   0.066885   0.249961
Zn      0.465919   0.133044   0.998814
O       0.534681   0.068002   0.439852
O       0.468127   0.133916   0.189630
Zn      0.533368   0.066319   0.750592
Zn      0.466441   0.133435   0.500892
O       0.533929   0.066530   0.941811
O       0.467020   0.133007   0.691340
Zn      0.533147   0.266434   0.249905
Zn      0.466318   0.333542   0.998805
O       0.534759   0.266617   0.439738
O       0.468526   0.333615   0.189805
Zn      0.533240   0.266638   0.750453
Zn      0.467079   0.332898   0.499943
O       0.534122   0.267005   0.941669
O       0.466830   0.333301   0.690583
Zn      0.533104   0.466897   0.250023
Zn      0.466749   0.533252   0.000574
O       0.533634   0.466367   0.440504
O       0.466354   0.533647   0.191098
Zn      0.533029   0.466972   0.749019
Zn      0.467086   0.532915   0.499115
O       0.533039   0.466962   0.939763
O       0.465938   0.534063   0.689840
Zn      0.533165   0.666780   0.250911
Zn      0.466398   0.733007   0.000890
O       0.532924   0.667106   0.441957
O       0.465251   0.732779   0.189914
Zn      0.533297   0.666439   0.749998
Zn      0.467291   0.733706   0.500028
O       0.532080   0.666685   0.939769
O       0.455802   0.727992   0.695240
Zn      0.532948   0.865804   0.251512
Zn      0.466496   0.933101   0.000515
O       0.533151   0.866409   0.442391
O       0.468267   0.934371   0.191234
Zn      0.533148   0.866532   0.749937
Zn      0.467306   0.934661   0.499597
O       0.531918   0.865320   0.939801
O       0.466495   0.932652   0.690338
Zn      0.733606   0.066725   0.250005
Zn      0.666449   0.132864   0.999723
O       0.733182   0.067976   0.439953
O       0.672061   0.144113   0.195096
Zn      0.732970   0.065972   0.750413
Zn      0.666881   0.133828   0.501219
O       0.732429   0.066462   0.941624
O       0.667146   0.134125   0.690212
Al      0.733310   0.266691   0.249737
Zn      0.666373   0.333628   0.999797
O       0.733323   0.266678   0.424568
O       0.672094   0.327907   0.195087
Zn      0.733498   0.266503   0.753300
Zn      0.666726   0.333275   0.501303
O       0.733379   0.266622   0.943560
O       0.667417   0.332584   0.690229
Zn      0.733567   0.466854   0.249905
Zn      0.666459   0.533683   0.998805
O       0.733384   0.465242   0.439738
O       0.666386   0.531475   0.189805
Zn      0.733363   0.466761   0.750453
Zn      0.667103   0.532922   0.499943
O       0.732996   0.465879   0.941669
O       0.666700   0.533171   0.690583
Zn      0.732839   0.665972   0.248871
Zn      0.666234   0.733084   0.999820
O       0.732923   0.665881   0.439704
O       0.665857   0.733099   0.190571
Zn      0.733076   0.667220   0.748858
Zn      0.667601   0.733761   0.498664
O       0.732918   0.666749   0.939686
O       0.664945   0.733575   0.689736
Zn      0.733001   0.866991   0.248857
Zn      0.665846   0.932450   0.999591
O       0.733071   0.867144   0.439570
O       0.665611   0.934579   0.190475
Zn      0.733919   0.866925   0.750040
Zn      0.667605   0.934263   0.499593
O       0.732746   0.866533   0.940583
O       0.665168   0.932252   0.690494
Zn      0.933130   0.066871   0.249020
Zn      0.866909   0.133092   0.998684
O       0.932921   0.067080   0.439689
O       0.865843   0.134158   0.189568
Zn      0.933466   0.066535   0.749352
Zn      0.866824   0.133177   0.500773
O       0.933256   0.066745   0.939972
O       0.866219   0.133782   0.691334
Zn      0.933276   0.266395   0.250005
Zn      0.867137   0.333552   0.999723
O       0.932025   0.266819   0.439953
O       0.855888   0.327940   0.195096
Zn      0.934029   0.267031   0.750413
Zn      0.866173   0.333120   0.501219
O       0.933539   0.267572   0.941624
O       0.865876   0.332855   0.690212
Zn      0.933116   0.466718   0.249961
Zn      0.866957   0.534082   0.998814
O       0.931999   0.465320   0.439852
O       0.866085   0.531874   0.189630
Zn      0.933682   0.466633   0.750592
Zn      0.866566   0.533560   0.500892
O       0.933471   0.466072   0.941811
O       0.866994   0.532981   0.691340
Zn      0.933141   0.666322   0.249044
Zn      0.866710   0.733365   0.998993
O       0.933142   0.665928   0.439888
O       0.866193   0.732559   0.189797
Zn      0.934185   0.667395   0.748848
Zn      0.866650   0.733333   0.498996
O       0.934011   0.666787   0.939596
O       0.866505   0.733037   0.689836
Zn      0.933019   0.866498   0.248866
Zn      0.866789   0.933175   0.999458
O       0.933140   0.866430   0.439529
O       0.866124   0.933553   0.190084
Zn      0.933381   0.866751   0.749245
Zn      0.866955   0.933405   0.498770
O       0.933341   0.866602   0.939829
O       0.866384   0.933344   0.689550


